NAME: tsp30_29
COMMENT: 30-tsp problem (Padberg/Rinaldi)
TYPE: TSP
DIMENSION: 30
EDGE_WEIGHT_TYPE : EUC_2D
NODE_COORD_SECTION
1 31 22
2 12 36
3 5 36
4 4 18
5 19 14
6 5 22
7 31 9
8 6 39
9 22 5
10 36 19
11 33 33
12 23 14
13 23 7
14 19 30
15 3 15
16 25 6
17 12 10
18 12 1
19 3 1
20 7 0
21 32 17
22 3 18
23 35 19
24 24 33
25 39 7
26 6 26
27 40 26
28 26 9
29 27 11
30 18 9
